NAME : tsp50_13.236.tour
COMMENT : Length = 236
COMMENT : Found by LKH [Keld Helsgaun]
TYPE : TOUR
DIMENSION : 50
TOUR_SECTION
1
29
14
32
20
6
12
49
4
46
40
24
2
42
3
17
41
48
35
28
19
30
38
22
33
25
13
47
10
23
26
18
31
7
39
9
8
11
43
44
5
27
50
16
21
34
15
37
36
45
-1
EOF
